<number of tasks>
28

<cycle time>
205

<task times>
1 70
2 59
3 33
4 6
5 1
6 27
7 17
8 62
9 31
10 53
11 21
12 19
13 108
14 52
15 5
16 8
17 97
18 8
19 47
20 67
21 17
22 8
23 3
24 21
25 107
26 3
27 2
28 72

<precedence relations>
1,2
1,3
1,4
1,5
1,8
1,19
1,21
1,22
1,23
1,24
1,26
2,6
2,17
3,28
4,28
5,28
6,7
7,18
8,9
9,10
10,11
10,12
11,15
12,13
13,14
13,16
14,28
15,28
16,28
17,28
18,28
19,20
20,28
21,28
22,28
23,28
24,25
25,28
26,27
27,28

<setup times forward>
1,3:3
1,5:1
1,19:3
1,21:1
1,23:1
1,24:3
1,26:2
2,3:3
2,5:1
2,6:2
2,9:3
2,10:3
2,11:1
2,12:3
2,13:2
2,14:1
2,15:1
2,16:1
2,17:1
2,19:3
2,20:2
2,21:1
2,23:1
2,24:3
2,25:1
2,26:2
2,27:1
3,2:3
3,4:3
3,5:2
3,6:5
3,7:2
3,8:3
3,11:2
3,13:5
3,14:2
3,15:2
3,16:2
3,17:2
3,18:2
3,20:5
3,21:2
3,22:3
3,23:2
3,25:2
3,26:5
3,27:2
3,28:2
4,3:3
4,5:1
4,6:2
4,7:1
4,9:3
4,10:3
4,11:1
4,12:3
4,13:2
4,14:1
4,15:1
4,16:1
4,17:1
4,18:1
4,19:3
4,20:2
4,21:1
4,23:1
4,24:3
4,25:1
4,26:2
4,27:1
4,28:1
5,2:1
5,3:2
5,4:1
5,6:3
5,8:1
5,9:2
5,10:2
5,12:2
5,13:3
5,19:2
5,20:3
5,22:1
5,24:2
5,26:3
6,3:5
6,4:2
6,5:3
6,7:3
6,8:2
6,9:5
6,10:5
6,11:3
6,12:5
6,14:3
6,15:3
6,16:3
6,17:3
6,19:5
6,21:3
6,22:2
6,23:3
6,24:5
6,25:3
6,27:3
7,3:2
7,4:1
7,8:1
7,9:2
7,10:2
7,12:2
7,13:3
7,19:2
7,20:3
7,22:1
7,24:2
7,26:3
8,3:3
8,5:1
8,6:2
8,7:1
8,9:3
8,17:1
8,18:1
8,19:3
8,20:2
8,21:1
8,23:1
8,24:3
8,25:1
8,26:2
8,27:1
9,2:3
9,4:3
9,5:2
9,6:5
9,7:2
9,17:2
9,18:2
9,20:5
9,21:2
9,22:3
9,23:2
9,25:2
9,26:5
9,27:2
10,2:3
10,4:3
10,5:2
10,6:5
10,7:2
10,11:2
10,17:2
10,18:2
10,20:5
10,21:2
10,22:3
10,23:2
10,25:2
10,26:5
10,27:2
11,2:1
11,3:2
11,4:1
11,6:3
11,12:2
11,13:3
11,19:2
11,20:3
11,22:1
11,24:2
11,26:3
12,2:3
12,4:3
12,5:2
12,6:5
12,7:2
12,11:2
12,13:5
12,15:2
12,17:2
12,18:2
12,20:5
12,21:2
12,22:3
12,23:2
12,25:2
12,26:5
12,27:2
13,2:2
13,3:5
13,4:2
13,5:3
13,7:3
13,11:3
13,14:3
13,15:3
13,16:3
13,17:3
13,18:3
13,19:5
13,21:3
13,22:2
13,23:3
13,24:5
13,25:3
13,27:3
14,2:1
14,3:2
14,4:1
14,6:3
14,19:2
14,20:3
14,22:1
14,24:2
14,26:3
15,2:1
15,3:2
15,4:1
15,6:3
15,12:2
15,13:3
15,19:2
15,20:3
15,22:1
15,24:2
15,26:3
16,2:1
16,3:2
16,4:1
16,6:3
16,19:2
16,20:3
16,22:1
16,24:2
16,26:3
17,3:2
17,4:1
17,6:3
17,8:1
17,9:2
17,10:2
17,12:2
17,13:3
17,19:2
17,20:3
17,22:1
17,24:2
17,26:3
18,3:2
18,4:1
18,8:1
18,9:2
18,10:2
18,12:2
18,13:3
18,19:2
18,20:3
18,22:1
18,24:2
18,26:3
19,2:3
19,4:3
19,5:2
19,6:5
19,7:2
19,8:3
19,11:2
19,13:5
19,14:2
19,15:2
19,16:2
19,17:2
19,18:2
19,20:5
19,21:2
19,22:3
19,23:2
19,25:2
19,26:5
19,27:2
20,2:2
20,3:5
20,4:2
20,5:3
20,7:3
20,8:2
20,9:5
20,10:5
20,11:3
20,12:5
20,14:3
20,15:3
20,16:3
20,17:3
20,18:3
20,21:3
20,22:2
20,23:3
20,24:5
20,25:3
20,27:3
20,28:3
21,2:1
21,3:2
21,4:1
21,6:3
21,8:1
21,9:2
21,10:2
21,12:2
21,13:3
21,19:2
21,20:3
21,22:1
21,24:2
21,26:3
22,3:3
22,5:1
22,6:2
22,7:1
22,9:3
22,10:3
22,11:1
22,12:3
22,13:2
22,14:1
22,15:1
22,16:1
22,17:1
22,18:1
22,19:3
22,20:2
22,21:1
22,23:1
22,24:3
22,25:1
22,26:2
22,27:1
22,28:1
23,2:1
23,3:2
23,4:1
23,6:3
23,8:1
23,9:2
23,10:2
23,12:2
23,13:3
23,19:2
23,20:3
23,22:1
23,24:2
23,26:3
24,2:3
24,4:3
24,5:2
24,6:5
24,7:2
24,8:3
24,11:2
24,13:5
24,14:2
24,15:2
24,16:2
24,17:2
24,18:2
24,20:5
24,21:2
24,22:3
24,23:2
24,25:2
24,26:5
24,27:2
25,2:1
25,3:2
25,4:1
25,6:3
25,8:1
25,9:2
25,10:2
25,12:2
25,13:3
25,19:2
25,20:3
25,22:1
25,26:3
26,2:2
26,3:5
26,4:2
26,5:3
26,7:3
26,8:2
26,9:5
26,10:5
26,11:3
26,12:5
26,14:3
26,15:3
26,16:3
26,17:3
26,18:3
26,19:5
26,21:3
26,22:2
26,23:3
26,24:5
26,25:3
26,27:3
27,2:1
27,3:2
27,4:1
27,6:3
27,8:1
27,9:2
27,10:2
27,12:2
27,13:3
27,19:2
27,20:3
27,22:1
27,24:2

<setup times backward>
2,13:2
2,20:2
2,26:2
3,1:3
3,2:3
3,4:3
3,5:2
3,6:5
3,7:2
3,8:3
3,11:2
3,13:5
3,14:2
3,15:2
3,16:2
3,17:2
3,18:2
3,20:5
3,21:2
3,22:3
3,23:2
3,25:2
3,26:5
3,27:2
4,6:2
4,13:2
4,20:2
4,26:2
5,1:1
5,2:1
5,4:1
5,6:3
5,8:1
5,13:3
5,20:3
5,22:1
5,26:3
7,1:1
7,2:1
7,4:1
7,6:3
7,8:1
7,13:3
7,20:3
7,22:1
7,26:3
8,6:2
8,20:2
8,26:2
9,1:3
9,2:3
9,4:3
9,5:2
9,6:5
9,7:2
9,8:3
9,17:2
9,18:2
9,20:5
9,21:2
9,22:3
9,23:2
9,25:2
9,26:5
9,27:2
10,1:3
10,2:3
10,4:3
10,5:2
10,6:5
10,7:2
10,8:3
10,17:2
10,18:2
10,20:5
10,21:2
10,22:3
10,23:2
10,25:2
10,26:5
10,27:2
11,1:1
11,2:1
11,4:1
11,6:3
11,8:1
11,13:3
11,20:3
11,22:1
11,26:3
12,1:3
12,2:3
12,4:3
12,5:2
12,6:5
12,7:2
12,8:3
12,11:2
12,15:2
12,17:2
12,18:2
12,20:5
12,21:2
12,22:3
12,23:2
12,25:2
12,26:5
12,27:2
14,1:1
14,2:1
14,4:1
14,6:3
14,8:1
14,13:3
14,20:3
14,22:1
14,26:3
15,1:1
15,2:1
15,4:1
15,6:3
15,8:1
15,13:3
15,20:3
15,22:1
15,26:3
16,1:1
16,2:1
16,4:1
16,6:3
16,8:1
16,13:3
16,20:3
16,22:1
16,26:3
17,1:1
17,2:1
17,4:1
17,6:3
17,8:1
17,13:3
17,20:3
17,22:1
17,26:3
18,1:1
18,2:1
18,4:1
18,6:3
18,8:1
18,13:3
18,20:3
18,22:1
18,26:3
19,1:3
19,2:3
19,4:3
19,5:2
19,6:5
19,7:2
19,8:3
19,11:2
19,13:5
19,14:2
19,15:2
19,16:2
19,17:2
19,18:2
19,21:2
19,22:3
19,23:2
19,25:2
19,26:5
19,27:2
21,1:1
21,2:1
21,4:1
21,6:3
21,8:1
21,13:3
21,20:3
21,22:1
21,26:3
22,6:2
22,13:2
22,20:2
22,26:2
23,1:1
23,2:1
23,4:1
23,6:3
23,8:1
23,13:3
23,20:3
23,22:1
23,26:3
24,1:3
24,2:3
24,4:3
24,5:2
24,6:5
24,7:2
24,8:3
24,11:2
24,13:5
24,14:2
24,15:2
24,16:2
24,17:2
24,18:2
24,20:5
24,21:2
24,22:3
24,23:2
24,26:5
24,27:2
25,1:1
25,2:1
25,4:1
25,6:3
25,8:1
25,13:3
25,20:3
25,22:1
25,26:3
27,1:1
27,2:1
27,4:1
27,6:3
27,8:1
27,13:3
27,20:3
27,22:1
27,26:3
28,1:1
28,2:1
28,4:1
28,6:3
28,8:1
28,13:3
28,20:3
28,22:1
28,26:3

<end>

<optimal SALBP-1 value>
5


<rand seed>
467321153

